(declare-const x0 Real)
(assert (<= 0.0 x0))
(declare-const x1 Real)
(assert (<= 0.0 x1))
(declare-const x2 Real)
(assert (<= 0.0 x2))


(minimize
	(+ (^ (+ (- (exp (- (* 0.100000 x0))) (exp (- (* 0.100000 x1)))) (* (- 0.536958) x2)) 2.0) (^ (+ (- (exp (- (* 0.200000 x0))) (exp (- (* 0.200000 x1)))) (* (- 0.683395) x2)) 2.0) (^ (+ (- (exp (- (* 0.300000 x0))) (exp (- (* 0.300000 x1)))) (* (- 0.691031) x2)) 2.0) (^ (+ (- (exp (- (* 0.400000 x0))) (exp (- (* 0.400000 x1)))) (* (- 0.652004) x2)) 2.0) (^ (+ (- (exp (- (* 0.500000 x0))) (exp (- (* 0.500000 x1)))) (* (- 0.599793) x2)) 2.0) (^ (+ (- (exp (- (* 0.600000 x0))) (exp (- (* 0.600000 x1)))) (* (- 0.546333) x2)) 2.0) (^ (+ (- (exp (- (* 0.700000 x0))) (exp (- (* 0.700000 x1)))) (* (- 0.495673) x2)) 2.0) (^ (+ (- (exp (- (* 0.800000 x0))) (exp (- (* 0.800000 x1)))) (* (- 0.448994) x2)) 2.0) (^ (+ (- (exp (- (* 0.900000 x0))) (exp (- (* 0.900000 x1)))) (* (- 0.406446) x2)) 2.0) (^ (+ (- (exp (- x0)) (exp (- x1))) (* (- 0.367834) x2)) 2.0))
)
(check-sat)
(get-objectives)
(exit)

